webassembly/ejemplos_dzn/7/folder7_json_11.dzn
TERM = { '.', 's(2)', 's(4)', 'in_1', 'local_0', 'local_1', 'in_6', 'in_2', 'in_4', 'in_3', 's(1)', 's(0)', 'in_7', 'in_5', 's(3)', 'in_0'};
null = '.';
s = 7;
n = 13;
ndeps = 4;
max_registers_sz = 5;
NR = 2;
registers = [|'local_0', 'in_2', |'local_1', 's(4)'|];
dependencies = [|'i32.store8_0', 'i32.store8_2', |'i32.store8_2', 'call[function_index(0)]_3', |'call[function_index(0)]_3', 'i32.load16_u_4', |'call[function_index(0)]_3', 'i32.load8_u_5'|];
GET_ENUM = { GET1, GET2, GET3, GET4, GET5, GET6, GET7};
SET_ENUM = { SET1, SET2, SET3, SET4, SET5, SET6, SET7};
TEE_ENUM = { TEE1, TEE2, TEE3, TEE4, TEE5, TEE6, TEE7};
N = 5;
OP = { 'call[function_index(0)]_3', 'i32.store8_0', 'i32.store8_2', 'i32.load16_u_4', 'i32.load8_u_5' };
in_ops = [3, 2, 2, 1, 1 ];
out_ops = [3, 0, 0, 1, 1 ];
in1 = ['in_5', 'in_0', 'in_3', 's(2)', 's(3)' ];
in2 = ['in_6', 'in_1', 'in_4', '.', '.' ];
in3 = ['in_7', '.', '.', '.', '.' ];
out1 = ['s(2)', '.', '.', 's(3)', 's(4)' ];
out2 = ['s(1)', '.', '.', '.', '.' ];
out3 = ['s(0)', '.', '.', '.', '.' ];
comm = [false, false, false, false, false ];
gas = [1, 1, 1, 1, 1 ];
sz = [1, 1, 1, 1, 1 ];
stor = [true, true, true, false, false ];
lb = [ 1, 1, 1, 1, 1 ];
ub = [ 7, 7, 7, 7, 7 ];
startstack = [ 'in_0', 'in_1', 'in_2', 'in_3', 'in_4', 'in_5', 'in_6', 'in_7', null, null, null, null, null ];
endstack = [ 's(4)', 's(1)', 's(0)', null, null, null, null, null, null, null, null, null, null ];
